\ENCODING=ISO-8859-1
\Problem name: ilog.cplex

Minimize
 obj: 0.46 x1 + 0.56 x2 + 0.81 x3
Subject To
 c1: 0.4 x1 + 0.2 x2 + 0.5 x3 >= 0.3
 c2: 0.4 x1 + 0.6 x2 + 0.4 x3 >= 0.5
 c3: x1 + x2 + x3  = 1
End
